out/bwp_8_4_1_lp.out
2
2 -0    2 0
6 1    6 1
7 1    7 1
-0 -0    1 1
