out/bwp_8_4_1_lp.log
Tried aggregator 2 times.
MIP Presolve eliminated 8 rows and 5 columns.
MIP Presolve modified 36 coefficients.
Aggregator did 36 substitutions.
Reduced MIP has 127 rows, 117 columns, and 296 nonzeros.
Reduced MIP has 72 binaries, 9 generals, 0 SOSs, and 0 indicators.
Presolve time = 0.00 sec. (0.26 ticks)
Found incumbent of value 5.000000 after 0.00 sec. (0.45 ticks)
Probing fixed 9 vars, tightened 18 bounds.
Probing time = 0.00 sec. (0.22 ticks)
Tried aggregator 3 times.
MIP Presolve eliminated 13 rows and 13 columns.
Aggregator did 38 substitutions.
Reduced MIP has 76 rows, 66 columns, and 191 nonzeros.
Reduced MIP has 48 binaries, 18 generals, 0 SOSs, and 0 indicators.
Presolve time = 0.00 sec. (0.32 ticks)
Probing time = 0.00 sec. (0.08 ticks)
Tried aggregator 1 time.
Reduced MIP has 76 rows, 66 columns, and 191 nonzeros.
Reduced MIP has 48 binaries, 18 generals, 0 SOSs, and 0 indicators.
Presolve time = 0.00 sec. (0.09 ticks)
Probing time = 0.00 sec. (0.08 ticks)
Clique table members: 48.
MIP emphasis: balance optimality and feasibility.
MIP search method: dynamic search.
Parallel mode: deterministic, using up to 4 threads.
Root relaxation solution time = 0.00 sec. (0.09 ticks)

        Nodes                                         Cuts/
   Node  Left     Objective  IInf  Best Integer    Best Bound    ItCnt     Gap

*     0+    0                            5.0000        2.0000       18   60.00%
      0     0        2.0000    27        5.0000        2.0000       18   60.00%
      0     0        2.0000     4        5.0000      Fract: 1       19   60.00%
*     0+    0                            3.0000        2.0000       19   33.33%
*     0     0      integral     0        2.0000       Cuts: 3       20    0.00%
      0     0        cutoff              2.0000        2.0000       20    0.00%
Elapsed time = 0.02 sec. (3.87 ticks, tree = 0.00 MB, solutions = 3)

Mixed integer rounding cuts applied:  1

Root node processing (before b&c):
  Real time             =    0.02 sec. (3.88 ticks)
Parallel b&c, 4 threads:
  Real time             =    0.00 sec. (0.00 ticks)
  Sync time (average)   =    0.00 sec.
  Wait time (average)   =    0.00 sec.
                          ------------
Total (root+branch&cut) =    0.02 sec. (3.88 ticks)
